%%% static parameters %%%
timespan = 1;
Fact = [2];
Distr1 = [5];
Distr2 = [10];
Clients_N = [100];
Demand_W = [15];
Lt0 = [4];
Lt1 = [4];
SS_ = [0.85];
DS_D = [8];
K = [200];
MA = [500];
%%% dynamic parameters %%%
lost_ratio_sales_ret_th = 0.018341397605371457;
lost_ratio_sales_ret_w = 91;
lost_ratio_sales_dis_th = 0.8720003016355662;
lost_ratio_sales_dis_w = 76;
lost_ratio_sales_fac_th = 0.37456135416768666;
lost_ratio_sales_fac_w = 79;
stock_customer_MA_mean_relative_th = 0.25214640286575674;
stock_customer_MA_mean_relative_w = 82;
stock_distributor_MA_mean_relative_th = 0.15762635983081685;
stock_distributor_MA_mean_relative_w = 10;
stock_retailer_MA_mean_relative_th = 0.7800781401317992;
stock_retailer_MA_mean_relative_w = 51;
stock_factory_MA_mean_relative_th = 0.2627504690977489;
stock_factory_MA_mean_relative_w = 43;
